mixintcount/benchmarks/random_v2l/5_5_158.smt2
(set-logic QF_LIA)
(set-info :ran/ran2.smt2)
(set-info :smt-lib-version 2.0)
(declare-fun x1 () Int)
(declare-fun x2 () Int)
(declare-fun x3 () Int)
(declare-fun x4 () Int)
(declare-fun x5 () Int)
(assert (<= (+ (* 8 x1) (* 8 x2) (* 0 x3) (* 2 x4) (* 10 x5) ) 54))
(assert (<= (+ (* 0 x1) (* (- 6) x2) (* (- 4) x3) (* 4 x4) (* 1 x5) ) 68))
(assert (<= (+ (* 3 x1) (* (- 10) x2) (* 4 x3) (* (- 7) x4) (* (- 7) x5) ) 130))
(assert (<= (+ (* 0 x1) (* (- 10) x2) (* 1 x3) (* (- 7) x4) (* (- 8) x5) ) 24))
(assert (<= (+ (* 2 x1) (* 9 x2) (* 3 x3) (* (- 10) x4) (* 5 x5) ) (- 132)))
(assert (<= (+ (* 2 x1) (* 0 x2) (* (- 7) x3) (* (- 9) x4) (* (- 8) x5) ) 18))
(assert (<= (+ (* (- 4) x1) (* 2 x2) (* (- 6) x3) (* 1 x4) (* (- 7) x5) ) (- 11)))
(assert (<= (+ (* 6 x1) (* 7 x2) (* 6 x3) (* (- 2) x4) (* 10 x5) ) (- 33)))
(assert (<= (+ (* (- 10) x1) (* (- 3) x2) (* 7 x3) (* 2 x4) (* 0 x5) ) 143))
(assert (<= (+ (* 3 x1) (* (- 8) x2) (* 6 x3) (* (- 5) x4) (* (- 8) x5) ) (- 43)))
(assert (<= (+ (* 1 x1) (* 0 x2) (* 0 x3) (* 0 x4) (* 0 x5) ) 158))
(assert (<= (+ (* (- 1) x1) (* 0 x2) (* 0 x3) (* 0 x4) (* 0 x5) ) 158))
(assert (<= (+ (* 0 x1) (* 1 x2) (* 0 x3) (* 0 x4) (* 0 x5) ) 158))
(assert (<= (+ (* 0 x1) (* (- 1) x2) (* 0 x3) (* 0 x4) (* 0 x5) ) 158))
(assert (<= (+ (* 0 x1) (* 0 x2) (* 1 x3) (* 0 x4) (* 0 x5) ) 158))
(assert (<= (+ (* 0 x1) (* 0 x2) (* (- 1) x3) (* 0 x4) (* 0 x5) ) 158))
(assert (<= (+ (* 0 x1) (* 0 x2) (* 0 x3) (* 1 x4) (* 0 x5) ) 158))
(assert (<= (+ (* 0 x1) (* 0 x2) (* 0 x3) (* (- 1) x4) (* 0 x5) ) 158))
(assert (<= (+ (* 0 x1) (* 0 x2) (* 0 x3) (* 0 x4) (* 1 x5) ) 158))
(assert (<= (+ (* 0 x1) (* 0 x2) (* 0 x3) (* 0 x4) (* (- 1) x5) ) 158))
