mixintcount/benchmarks/random_v2l/5_5_158.in
20 7
#	x1	x2	x3	x4	x5;		0 = Real; 1 = Integer
	1	1	1	1	1
1	8	8	0	2	10	54
1	0	-6	-4	4	1	68
1	3	-10	4	-7	-7	130
1	0	-10	1	-7	-8	24
1	2	9	3	-10	5	-132
1	2	0	-7	-9	-8	18
1	-4	2	-6	1	-7	-11
1	6	7	6	-2	10	-33
1	-10	-3	7	2	0	143
1	3	-8	6	-5	-8	-43
1	1	0	0	0	0	158
1	-1	0	0	0	0	158
1	0	1	0	0	0	158
1	0	-1	0	0	0	158
1	0	0	1	0	0	158
1	0	0	-1	0	0	158
1	0	0	0	1	0	158
1	0	0	0	-1	0	158
1	0	0	0	0	1	158
1	0	0	0	0	-1	158
